Normalized Data/p10_2_normalized_splitx10_0.vrp
NAME:p10_2_NORMALIZED_splitx10_
BEST_KNOWN: 0
COMMENT: 0
DIMENSION: 834
CAPACITY: 1000
EDGE_WEIGHT_FORMAT: FUNCTION
EDGE_WEIGHT_TYPE: EXACT_2D
NODE_COORD_SECTION
1 0.00000 0.00000
2 28 -46
3 28 -46
4 28 -46
5 28 -46
6 28 -46
7 28 -46
8 11 -26
9 11 -26
10 20 12
11 20 12
12 20 12
13 20 12
14 20 12
15 20 12
16 44 -40
17 44 -40
18 44 -40
19 44 -40
20 -36 20
21 -36 20
22 -36 20
23 -36 20
24 -36 20
25 -40 28
26 -40 28
27 -40 28
28 -40 28
29 -40 28
30 -40 28
31 -35 -1
32 -35 -1
33 -35 -1
34 -35 -1
35 -34 -10
36 -34 -10
37 -34 -10
38 -34 -10
39 -34 -10
40 -34 -10
41 15 25
42 15 25
43 15 25
44 15 25
45 50 14
46 50 14
47 50 14
48 50 14
49 50 14
50 50 14
51 21 -22
52 21 -22
53 21 -22
54 21 -22
55 -38 42
56 -38 42
57 -38 42
58 -38 42
59 -38 42
60 -2 -37
61 -2 -37
62 -2 -37
63 -2 -37
64 -2 -37
65 -2 -37
66 21 7
67 21 7
68 21 7
69 47 -21
70 47 -21
71 47 -21
72 47 -21
73 47 -21
74 47 -21
75 35 -6
76 35 -6
77 35 -6
78 35 -6
79 35 -6
80 2 21
81 2 21
82 2 21
83 2 21
84 2 21
85 2 21
86 -3 -1
87 -3 -1
88 -3 -1
89 -3 -1
90 -3 -1
91 -3 -1
92 -3 -1
93 22 -37
94 22 -37
95 22 -37
96 22 -37
97 -44 -1
98 -44 -1
99 -44 -1
100 -44 -1
101 5 18
102 5 18
103 5 18
104 33 16
105 33 16
106 33 16
107 33 16
108 33 16
109 -47 35
110 -47 35
111 -47 35
112 -49 14
113 -49 14
114 -49 14
115 -49 14
116 15 -48
117 15 -48
118 15 -48
119 15 -48
120 15 -48
121 15 -48
122 0 43
123 0 43
124 0 43
125 -47 -32
126 -47 -32
127 -47 -32
128 -47 -32
129 -47 -32
130 -5 -2
131 -5 -2
132 -5 -2
133 30 -8
134 30 -8
135 30 -8
136 40 37
137 40 37
138 44 3
139 44 3
140 44 3
141 -31 18
142 -31 18
143 -31 18
144 -31 18
145 -29 23
146 -29 23
147 -29 23
148 -29 23
149 -29 23
150 -29 23
151 -40 43
152 -40 43
153 -40 43
154 -40 43
155 -40 43
156 6 -19
157 6 -19
158 6 -19
159 6 -19
160 6 -19
161 -20 34
162 -20 34
163 -20 34
164 -20 34
165 -20 34
166 48 4
167 48 4
168 48 4
169 48 4
170 48 4
171 -2 2
172 -2 2
173 -2 2
174 -2 2
175 -2 2
176 -2 2
177 10 16
178 10 16
179 4 14
180 4 14
181 4 14
182 -7 -37
183 -7 -37
184 -7 -37
185 -7 -37
186 -7 -37
187 -7 -37
188 48 -5
189 48 -5
190 48 -5
191 48 -11
192 48 -11
193 -10 31
194 -10 31
195 -10 31
196 -10 31
197 -10 31
198 -10 31
199 35 45
200 35 45
201 35 45
202 -10 -7
203 -10 -7
204 -10 -7
205 -10 -7
206 -10 -7
207 42 43
208 42 43
209 42 43
210 42 43
211 24 -48
212 24 -48
213 24 -48
214 33 -5
215 33 -5
216 33 -5
217 33 -5
218 33 -5
219 33 -5
220 -3 -22
221 -3 -22
222 -3 -22
223 -3 -22
224 -3 -22
225 -10 34
226 -10 34
227 -10 34
228 -10 34
229 -10 34
230 -10 34
231 40 -8
232 40 -8
233 40 -8
234 40 -8
235 -5 27
236 -5 27
237 -5 27
238 -5 27
239 -35 12
240 -35 12
241 -35 12
242 -35 12
243 -30 -35
244 -30 -35
245 -30 -35
246 -11 43
247 -11 43
248 2 44
249 2 44
250 2 44
251 2 44
252 2 44
253 30 -9
254 30 -9
255 30 -9
256 30 -9
257 30 -9
258 30 -9
259 25 -16
260 25 -16
261 -35 -2
262 -35 -2
263 -35 -2
264 -35 -2
265 37 32
266 37 32
267 37 32
268 37 32
269 37 32
270 37 32
271 -15 -42
272 -15 -42
273 -15 -42
274 -13 12
275 -13 12
276 -13 12
277 0 -16
278 0 -16
279 0 -16
280 0 -16
281 0 -16
282 -47 -30
283 -47 -30
284 -47 -30
285 -47 -30
286 -47 -30
287 -33 -14
288 -33 -14
289 -33 -14
290 -36 -28
291 -36 -28
292 -36 -28
293 -36 -28
294 -3 -21
295 -3 -21
296 -3 -21
297 -3 -21
298 21 47
299 21 47
300 21 47
301 23 -2
302 23 -2
303 23 -2
304 23 -2
305 23 -2
306 23 -2
307 -42 -7
308 -42 -7
309 -42 -7
310 -42 -7
311 -42 -7
312 -13 33
313 -13 33
314 -13 33
315 33 -37
316 33 -37
317 33 -37
318 0 46
319 0 46
320 0 46
321 5 -24
322 5 -24
323 5 -24
324 5 -24
325 -1 21
326 -1 21
327 -1 21
328 -1 21
329 -1 21
330 -49 14
331 -37 4
332 -37 4
333 -37 4
334 -37 4
335 -45 29
336 -45 29
337 42 25
338 42 25
339 8 -50
340 8 -50
341 8 -50
342 8 -50
343 8 -50
344 -25 5
345 -25 5
346 -25 5
347 -25 5
348 -25 5
349 -25 5
350 13 8
351 13 8
352 13 8
353 -1 -23
354 -1 -23
355 -1 -23
356 -1 -23
357 -5 -40
358 -5 -40
359 -5 -40
360 -5 -40
361 -5 -40
362 -5 -40
363 13 43
364 13 43
365 13 43
366 43 30
367 43 30
368 43 30
369 -48 23
370 -48 23
371 -48 23
372 -48 23
373 -1 -2
374 -1 -2
375 -46 -12
376 -46 -12
377 -46 -12
378 -46 -12
379 -46 -12
380 -46 -12
381 49 7
382 49 7
383 49 7
384 28 28
385 28 28
386 28 28
387 28 28
388 28 28
389 28 28
390 28 28
391 -42 32
392 -42 32
393 -42 32
394 31 -45
395 31 -45
396 31 -45
397 32 -10
398 32 -10
399 32 -10
400 32 -10
401 32 -10
402 -5 41
403 -5 41
404 -5 41
405 -5 41
406 8 2
407 8 2
408 8 2
409 8 2
410 40 3
411 40 3
412 40 3
413 40 3
414 40 3
415 40 3
416 -44 -26
417 -44 -26
418 -44 -26
419 9 -44
420 9 -44
421 9 -44
422 -29 -19
423 -2 -43
424 -2 -43
425 -39 9
426 -39 9
427 -31 -3
428 -31 -3
429 -31 -3
430 -44 43
431 -44 43
432 -44 43
433 -44 43
434 -44 43
435 -44 43
436 -41 -21
437 -41 -21
438 -41 -21
439 -41 -21
440 1 47
441 1 47
442 1 47
443 1 47
444 -36 -39
445 -36 -39
446 -26 36
447 -26 36
448 -26 36
449 -23 6
450 -23 6
451 -23 6
452 -23 6
453 -23 6
454 -19 -16
455 -19 -16
456 -19 -16
457 -19 -16
458 -19 -16
459 -19 -16
460 -7 12
461 -7 12
462 -7 12
463 19 21
464 19 21
465 19 21
466 19 21
467 19 21
468 10 -10
469 10 -10
470 10 -10
471 10 -10
472 -29 25
473 -29 25
474 -29 25
475 -29 25
476 42 -11
477 42 -11
478 42 -11
479 42 -11
480 24 -48
481 24 -48
482 24 -48
483 24 -48
484 24 -48
485 40 -36
486 40 -36
487 40 -36
488 40 -36
489 14 -4
490 14 -4
491 14 -4
492 14 -4
493 14 -4
494 14 -4
495 -50 11
496 -50 11
497 -50 11
498 -50 11
499 -50 11
500 -50 11
501 -27 -41
502 -27 -41
503 -27 -41
504 22 46
505 22 46
506 49 -37
507 49 -37
508 49 -37
509 49 -37
510 49 -37
511 49 -37
512 49 -37
513 28 -17
514 28 -17
515 28 -17
516 28 -17
517 28 -17
518 -28 -10
519 -28 -10
520 -28 -10
521 -28 -10
522 -28 -10
523 -28 -10
524 -40 4
525 -40 4
526 -40 4
527 -40 4
528 -40 4
529 -40 4
530 -3 -32
531 -3 -32
532 -3 -32
533 -3 -32
534 -3 -32
535 -35 21
536 -35 21
537 -35 21
538 -35 21
539 -35 21
540 -1 21
541 -1 21
542 -1 21
543 -1 21
544 -1 21
545 -43 -50
546 -43 -50
547 -43 -50
548 -46 6
549 -46 6
550 -46 6
551 22 -4
552 22 -4
553 12 -11
554 12 -11
555 12 -11
556 12 -11
557 12 -11
558 13 9
559 13 9
560 13 9
561 13 9
562 13 9
563 -44 -5
564 -44 -5
565 -44 -5
566 4 14
567 4 14
568 4 14
569 4 14
570 4 14
571 4 14
572 44 -36
573 44 -36
574 44 -36
575 44 -36
576 44 -36
577 44 -36
578 48 44
579 48 44
580 48 44
581 48 44
582 48 44
583 48 44
584 -30 -40
585 -30 -40
586 -30 -40
587 -30 -40
588 0 -48
589 -45 -28
590 -45 -28
591 -45 -28
592 -45 -28
593 -25 9
594 -25 9
595 -25 9
596 6 -38
597 6 -38
598 6 -38
599 6 -38
600 6 -38
601 -25 -9
602 -25 -9
603 -25 -9
604 -25 -9
605 -25 -9
606 35 -9
607 35 -9
608 35 -9
609 35 -9
610 35 -9
611 37 29
612 37 29
613 37 29
614 4 3
615 4 3
616 4 3
617 4 3
618 -34 -16
619 -34 -16
620 -34 -16
621 -34 -16
622 -34 -16
623 -34 -16
624 -18 24
625 -18 24
626 -18 24
627 -18 24
628 47 7
629 47 7
630 47 7
631 42 -29
632 42 -29
633 42 -29
634 42 -29
635 42 -29
636 42 -29
637 4 -28
638 4 -28
639 4 -28
640 4 -28
641 4 -28
642 31 -37
643 31 -37
644 11 23
645 11 23
646 11 23
647 11 23
648 11 23
649 45 -46
650 45 -46
651 -2 4
652 -2 4
653 -2 4
654 -2 4
655 -2 4
656 -28 -17
657 -28 -17
658 -28 -17
659 -28 -17
660 -28 -17
661 -36 -18
662 -36 -18
663 -36 -18
664 -23 -13
665 -23 -13
666 -23 -13
667 -23 -13
668 46 20
669 46 20
670 46 20
671 46 20
672 46 20
673 46 20
674 -33 3
675 -33 3
676 -33 3
677 -33 3
678 -33 3
679 -33 3
680 -19 10
681 -19 10
682 -19 10
683 -19 10
684 -19 10
685 -19 10
686 -28 -42
687 -14 28
688 -14 28
689 -14 28
690 30 24
691 30 24
692 -24 32
693 -24 32
694 -24 32
695 -24 32
696 -24 32
697 27 -38
698 27 -38
699 27 -38
700 27 -38
701 33 12
702 33 12
703 33 12
704 33 12
705 33 12
706 13 -24
707 13 -24
708 13 -24
709 13 -24
710 13 -24
711 -25 1
712 -25 1
713 -25 1
714 -25 1
715 -25 1
716 32 47
717 32 47
718 32 47
719 17 19
720 17 19
721 17 19
722 -49 -37
723 -49 -37
724 -49 -37
725 -49 -37
726 36 2
727 36 2
728 36 2
729 4 43
730 4 43
731 4 43
732 4 43
733 4 43
734 -31 29
735 -31 29
736 15 47
737 15 47
738 15 47
739 15 47
740 39 -29
741 39 -29
742 39 -29
743 39 -29
744 10 46
745 10 46
746 10 46
747 10 46
748 10 46
749 10 46
750 10 46
751 18 20
752 18 20
753 18 20
754 43 -49
755 43 -49
756 43 -49
757 43 -49
758 43 -49
759 -19 22
760 -19 22
761 -19 22
762 -19 22
763 8 5
764 8 5
765 -12 -25
766 -12 -25
767 -42 -33
768 -42 -33
769 -42 -33
770 -42 -33
771 -42 -33
772 -42 -33
773 -42 -33
774 -30 -33
775 -30 -33
776 -30 -33
777 -30 -33
778 -30 -33
779 -30 -33
780 36 32
781 36 32
782 36 32
783 36 32
784 36 32
785 36 32
786 36 32
787 50 8
788 50 8
789 50 8
790 50 8
791 -36 19
792 -36 19
793 -36 19
794 -36 19
795 -36 19
796 -36 19
797 -27 -6
798 -27 -6
799 -27 -6
800 -27 -6
801 1 30
802 1 30
803 1 30
804 1 30
805 1 30
806 14 0
807 18 19
808 18 19
809 -47 -46
810 -47 -46
811 -47 -46
812 37 -26
813 37 -26
814 37 -26
815 37 -26
816 10 24
817 10 24
818 10 24
819 10 24
820 25 -38
821 25 -38
822 25 -38
823 25 -38
824 25 -38
825 44 20
826 44 20
827 44 20
828 44 20
829 -10 -3
830 -10 -3
831 -10 -3
832 -10 -3
833 -10 -3
834 -10 -3
DEMAND_SECTION
1 0
2 200
3 200
4 50
5 10
6 10
7 10
8 100
9 50
10 200
11 100
12 10
13 10
14 10
15 10
16 100
17 50
18 10
19 10
20 100
21 10
22 10
23 10
24 10
25 200
26 100
27 10
28 10
29 10
30 10
31 200
32 10
33 10
34 10
35 200
36 100
37 50
38 10
39 10
40 10
41 100
42 50
43 10
44 10
45 200
46 200
47 10
48 10
49 10
50 10
51 200
52 200
53 10
54 10
55 100
56 50
57 10
58 10
59 10
60 200
61 50
62 10
63 10
64 10
65 10
66 200
67 100
68 10
69 200
70 100
71 50
72 10
73 10
74 10
75 200
76 10
77 10
78 10
79 10
80 200
81 200
82 10
83 10
84 10
85 10
86 200
87 200
88 50
89 10
90 10
91 10
92 10
93 200
94 100
95 50
96 10
97 100
98 10
99 10
100 10
101 200
102 100
103 50
104 100
105 50
106 10
107 10
108 10
109 200
110 200
111 100
112 100
113 50
114 10
115 10
116 200
117 200
118 10
119 10
120 10
121 10
122 200
123 100
124 10
125 100
126 50
127 10
128 10
129 10
130 200
131 200
132 10
133 200
134 100
135 10
136 200
137 10
138 200
139 50
140 10
141 200
142 10
143 10
144 10
145 200
146 200
147 10
148 10
149 10
150 10
151 200
152 200
153 50
154 10
155 10
156 100
157 50
158 10
159 10
160 10
161 200
162 100
163 50
164 10
165 10
166 200
167 200
168 50
169 10
170 10
171 200
172 100
173 10
174 10
175 10
176 10
177 200
178 100
179 200
180 200
181 10
182 200
183 200
184 50
185 10
186 10
187 10
188 200
189 50
190 10
191 100
192 50
193 200
194 100
195 10
196 10
197 10
198 10
199 200
200 200
201 50
202 200
203 100
204 10
205 10
206 10
207 200
208 50
209 10
210 10
211 200
212 200
213 50
214 200
215 200
216 50
217 10
218 10
219 10
220 200
221 200
222 50
223 10
224 10
225 200
226 200
227 10
228 10
229 10
230 10
231 200
232 200
233 50
234 10
235 200
236 50
237 10
238 10
239 100
240 10
241 10
242 10
243 200
244 200
245 10
246 200
247 100
248 200
249 100
250 10
251 10
252 10
253 200
254 100
255 10
256 10
257 10
258 10
259 200
260 100
261 100
262 10
263 10
264 10
265 200
266 100
267 50
268 10
269 10
270 10
271 200
272 200
273 50
274 200
275 10
276 10
277 100
278 10
279 10
280 10
281 10
282 200
283 10
284 10
285 10
286 10
287 100
288 50
289 10
290 100
291 10
292 10
293 10
294 200
295 200
296 50
297 10
298 200
299 100
300 50
301 200
302 200
303 50
304 10
305 10
306 10
307 200
308 200
309 50
310 10
311 10
312 200
313 100
314 10
315 200
316 100
317 10
318 200
319 200
320 10
321 200
322 10
323 10
324 10
325 200
326 200
327 50
328 10
329 10
330 200
331 200
332 10
333 10
334 10
335 200
336 10
337 200
338 10
339 200
340 100
341 10
342 10
343 10
344 200
345 50
346 10
347 10
348 10
349 10
350 200
351 100
352 50
353 200
354 10
355 10
356 10
357 200
358 50
359 10
360 10
361 10
362 10
363 200
364 200
365 50
366 200
367 100
368 50
369 100
370 10
371 10
372 10
373 200
374 200
375 200
376 50
377 10
378 10
379 10
380 10
381 100
382 10
383 10
384 200
385 200
386 50
387 10
388 10
389 10
390 10
391 200
392 100
393 50
394 100
395 10
396 10
397 200
398 50
399 10
400 10
401 10
402 200
403 50
404 10
405 10
406 100
407 50
408 10
409 10
410 100
411 50
412 10
413 10
414 10
415 10
416 200
417 200
418 10
419 100
420 50
421 10
422 200
423 100
424 50
425 200
426 50
427 200
428 100
429 10
430 100
431 50
432 10
433 10
434 10
435 10
436 100
437 10
438 10
439 10
440 200
441 100
442 10
443 10
444 200
445 10
446 200
447 10
448 10
449 100
450 10
451 10
452 10
453 10
454 200
455 50
456 10
457 10
458 10
459 10
460 200
461 100
462 10
463 200
464 10
465 10
466 10
467 10
468 200
469 10
470 10
471 10
472 200
473 10
474 10
475 10
476 100
477 50
478 10
479 10
480 200
481 50
482 10
483 10
484 10
485 200
486 50
487 10
488 10
489 200
490 200
491 10
492 10
493 10
494 10
495 200
496 200
497 50
498 10
499 10
500 10
501 200
502 10
503 10
504 100
505 50
506 200
507 100
508 50
509 10
510 10
511 10
512 10
513 200
514 200
515 10
516 10
517 10
518 100
519 50
520 10
521 10
522 10
523 10
524 200
525 100
526 50
527 10
528 10
529 10
530 100
531 10
532 10
533 10
534 10
535 200
536 10
537 10
538 10
539 10
540 100
541 50
542 10
543 10
544 10
545 200
546 50
547 10
548 200
549 200
550 10
551 200
552 200
553 100
554 50
555 10
556 10
557 10
558 100
559 10
560 10
561 10
562 10
563 200
564 100
565 50
566 200
567 50
568 10
569 10
570 10
571 10
572 100
573 50
574 10
575 10
576 10
577 10
578 100
579 50
580 10
581 10
582 10
583 10
584 200
585 50
586 10
587 10
588 200
589 200
590 10
591 10
592 10
593 100
594 50
595 10
596 200
597 100
598 50
599 10
600 10
601 200
602 200
603 10
604 10
605 10
606 200
607 100
608 50
609 10
610 10
611 200
612 100
613 50
614 200
615 10
616 10
617 10
618 200
619 200
620 50
621 10
622 10
623 10
624 200
625 100
626 10
627 10
628 200
629 10
630 10
631 200
632 100
633 10
634 10
635 10
636 10
637 200
638 100
639 10
640 10
641 10
642 200
643 200
644 200
645 100
646 10
647 10
648 10
649 200
650 200
651 100
652 10
653 10
654 10
655 10
656 200
657 200
658 50
659 10
660 10
661 200
662 200
663 50
664 200
665 100
666 10
667 10
668 200
669 200
670 50
671 10
672 10
673 10
674 200
675 200
676 50
677 10
678 10
679 10
680 200
681 200
682 10
683 10
684 10
685 10
686 200
687 100
688 50
689 10
690 200
691 10
692 200
693 100
694 10
695 10
696 10
697 200
698 200
699 10
700 10
701 200
702 10
703 10
704 10
705 10
706 200
707 10
708 10
709 10
710 10
711 200
712 200
713 50
714 10
715 10
716 200
717 200
718 100
719 200
720 100
721 50
722 200
723 10
724 10
725 10
726 100
727 10
728 10
729 200
730 200
731 50
732 10
733 10
734 100
735 50
736 200
737 100
738 50
739 10
740 200
741 200
742 10
743 10
744 200
745 200
746 50
747 10
748 10
749 10
750 10
751 200
752 200
753 10
754 200
755 100
756 10
757 10
758 10
759 100
760 10
761 10
762 10
763 200
764 200
765 200
766 10
767 200
768 200
769 50
770 10
771 10
772 10
773 10
774 200
775 100
776 10
777 10
778 10
779 10
780 200
781 100
782 50
783 10
784 10
785 10
786 10
787 200
788 200
789 10
790 10
791 100
792 50
793 10
794 10
795 10
796 10
797 200
798 200
799 10
800 10
801 200
802 200
803 50
804 10
805 10
806 200
807 200
808 100
809 200
810 10
811 10
812 200
813 100
814 50
815 10
816 200
817 200
818 10
819 10
820 200
821 100
822 10
823 10
824 10
825 100
826 50
827 10
828 10
829 200
830 50
831 10
832 10
833 10
834 10
DEPOT_SECTION
1
-1
EOF