Normalized Data/p10_2_normalized_splitx10_0.sol
833 -4 6 2 3 481 211 212 479 210 483 480 482 -14 12 13 104 103 107 627 628 629 787 788 789 786 380 381 382 169 168 414 411 -41 42 43 40 735 736 738 748 746 744 747 749 743 745 -49 46 48 44 47 45 667 669 668 672 670 671 105 106 -65 67 66 10 11 9 558 559 560 351 349 350 -75 78 74 76 77 187 188 189 233 231 230 232 608 256 254 -80 84 83 81 79 82 802 803 801 800 804 543 328 540 -89 88 87 91 90 85 86 130 129 131 -92 94 820 821 822 819 823 697 699 696 698 -93 95 5 1 394 395 393 314 315 316 642 470 468 469 -115 120 118 116 119 117 340 341 339 338 342 419 420 418 598 599 597 -121 248 250 247 249 251 730 732 731 729 728 -133 134 132 217 214 213 216 215 218 550 -141 142 140 143 20 19 791 795 790 793 425 424 674 676 677 714 -145 144 146 147 149 148 471 474 472 473 623 624 626 625 -157 158 159 155 156 321 323 322 320 637 638 640 639 636 352 354 355 353 -171 174 172 173 175 170 373 372 -176 644 643 647 645 646 817 818 816 815 566 -177 389 388 383 387 384 386 385 466 462 751 -181 184 361 359 360 357 356 358 422 423 587 61 62 530 529 222 223 -194 197 229 227 228 404 402 403 401 245 246 312 311 313 688 687 653 -196 195 193 192 226 225 224 236 237 235 234 -203 202 205 201 600 601 830 833 828 829 831 -204 421 656 655 657 659 658 664 666 663 665 -241 240 239 238 111 329 113 114 112 496 499 498 495 494 497 449 450 -243 242 774 773 776 456 458 455 453 454 457 -244 545 544 546 810 808 809 722 721 724 723 127 128 125 126 124 285 282 283 662 -258 259 516 513 514 515 51 50 53 52 553 -262 261 98 99 97 96 562 564 563 309 310 307 306 308 -265 268 577 579 582 581 578 580 208 209 207 206 135 136 784 785 779 -279 277 278 280 276 221 220 219 293 296 294 -286 619 617 622 621 618 620 660 661 -290 291 292 289 770 767 769 766 772 771 768 281 284 591 589 590 435 438 437 436 -295 182 185 183 186 270 271 272 765 764 -301 305 304 300 303 302 551 554 552 467 -325 541 326 327 542 324 539 101 100 102 180 567 570 569 568 -345 347 346 678 675 331 330 332 333 33 32 31 30 260 263 426 427 428 -362 363 364 737 298 299 297 504 503 -367 366 365 337 336 824 825 827 826 702 703 704 701 700 -391 390 392 109 108 110 734 733 -409 413 412 410 167 165 166 139 138 137 726 727 725 -442 441 440 439 318 317 319 123 122 650 652 -452 448 451 594 593 592 348 343 344 710 713 712 711 -464 465 463 200 198 199 716 717 715 -477 475 476 478 191 190 73 72 69 68 71 70 631 630 -489 488 805 407 408 405 406 613 614 615 616 -492 490 493 491 252 257 253 255 399 398 400 397 396 605 607 606 609 -500 501 502 685 584 586 583 585 443 444 775 778 777 -512 813 812 814 811 741 739 740 742 555 556 -521 522 520 517 519 518 35 34 39 37 36 38 797 799 796 798 -531 533 532 64 63 59 60 595 596 7 8 707 706 708 705 709 -537 538 535 536 534 21 22 23 27 29 28 25 26 24 335 334 369 368 371 370 794 792 -549 547 548 526 525 524 523 528 527 673 -557 561 807 806 752 750 720 719 718 -565 179 178 763 762 -571 18 15 17 16 648 649 755 756 753 757 754 -604 603 602 288 287 417 415 416 588 376 374 375 378 379 377 832 -632 635 634 633 509 507 508 506 505 511 510 574 575 572 576 573 486 485 484 487 641 -651 654 460 459 461 274 275 273 681 682 680 684 679 683 -686 163 161 162 164 160 446 445 447 694 691 692 -689 690 610 612 611 264 267 266 269 780 782 783 781 -693 695 57 55 54 58 56 151 153 150 154 152 434 431 429 430 432 433 758 760 761 759 0 





OBJ=
5404.038
BEST_KNOWN=
0.000